TITLE 'Benzene-Toluene Column Split without Heat Integration'

IN-UNITS SI TEMP=C PRES=BAR MOLE-FLOW='KMOL/HR' MASS-FLOW='KG/HR' ENTHALPY-FLO='WATT'
OUT-UNITS SI TEMP=C PRES=BAR MOLE-FLOW='KMOL/HR' MASS-FLOW='KG/HR' ENTHALPY-FLO='WATT'

DEF-STREAMS CONVEN ALL

COMPONENTS
    BENZENE BENZENE /
    TOLUENE TOLUENE

PROPERTIES PENG-ROB

FLOWSHEET
    BLOCK C1 IN=FEED REF REB-VAP OUT=TOP-VAP BOT-LIQ
    BLOCK E-COND IN=TOP-VAP OUT=COND-OUT
    BLOCK V-COND IN=COND-OUT OUT=OFF-GAS COND-LIQ
    BLOCK SPLIT IN=COND-LIQ OUT=REF DIST
    BLOCK E-REB IN=BOT-LIQ OUT=REB-OUT
    BLOCK V-REB IN=REB-OUT OUT=REB-VAP BOT

STREAM FEED
    SUBSTREAM MIXED TEMP=80.0 PRES=1.2 MOLE-FLOW=100.0
    MOLE-FRAC BENZENE 0.5 / TOLUENE 0.5

STREAM REF
    SUBSTREAM MIXED TEMP=85.0 PRES=1.2 MOLE-FLOW=100.0
    MOLE-FRAC BENZENE 0.95 / TOLUENE 0.05

STREAM REB-VAP
    SUBSTREAM MIXED TEMP=120.0 PRES=1.2 MOLE-FLOW=120.5
    MOLE-FRAC BENZENE 0.05 / TOLUENE 0.95

CONV-OPTIONS
    PARAM TEAR-METHOD=BROYDEN
    WEGSTEIN MAXIT=500
    BROYDEN MAXIT=500

CONVERGENCE CV BROYDEN
    TEAR REF
    TEAR REB-VAP

BLOCK C1 RADFRAC
    PARAM NSTAGE=20 ALGORITHM=STANDARD MAXOL=50
    COL-CONFIG CONDENSER=NONE REBOILER=NONE
    FEEDS FEED 10 / REF 1 ON-STAGE / REB-VAP 20 ON-STAGE
    PRODUCTS TOP-VAP 1 V / BOT-LIQ 20 L
    P-SPEC 1 1.2
    COL-SPECS DP-STAGE=0.0005

BLOCK E-COND HEATER
    PARAM VFRAC=0.0 PRES=1.2

BLOCK V-COND FLASH2
    PARAM DUTY=0.0 PRES=1.2

BLOCK SPLIT FSPLIT
    MOLE-FLOW DIST 50.0

BLOCK E-REB HEATER
    PARAM VFRAC=0.7445 PRES=1.2

BLOCK V-REB FLASH2
    PARAM DUTY=0.0 PRES=1.2
