TITLE 'Ethylbenzene Dehydrogenation with Styrene Distillation'

IN-UNITS SI TEMP=C PRES=BAR MOLE-FLOW='KMOL/HR' MASS-FLOW='KG/HR' ENTHALPY-FLO='WATT'
OUT-UNITS SI TEMP=C PRES=BAR MOLE-FLOW='KMOL/HR' MASS-FLOW='KG/HR' ENTHALPY-FLO='WATT'

DEF-STREAMS CONVEN ALL

COMPONENTS
    EB ETHYLBENZENE /
    STY STYRENE /
    H2 HYDROGEN

PROPERTIES PENG-ROB

FLOWSHEET
    BLOCK R1 IN=FEED OUT=RXOUT
    BLOCK FL1 IN=RXOUT OUT=VAP LIQ
    BLOCK C1 IN=LIQ OUT=EB-VAP STY-PROD

STREAM FEED
    SUBSTREAM MIXED TEMP=650.0 PRES=0.4 MOLE-FLOW=100.0
    MOLE-FRAC EB 1.0

BLOCK R1 RSTOIC
    PARAM TEMP=650.0 PRES=0.4
    STOIC 1 MIXED EB -1.0 / STY 1.0 / H2 1.0
    CONV 1 MIXED EB 0.65

BLOCK FL1 FLASH2
    PARAM TEMP=40.0 PRES=0.4

BLOCK C1 RADFRAC
    PARAM NSTAGE=60 ALGORITHM=STANDARD MAXOL=100
    COL-CONFIG CONDENSER=PARTIAL-V
    FEEDS LIQ 30
    PRODUCTS EB-VAP 1 V / STY-PROD 60 L
    P-SPEC 1 0.4
    COL-SPECS MOLE-B=62.0 MOLE-RR=15.0
    SPEC 1 MOLE-FRAC 0.999 COMPS=STY STREAMS=STY-PROD
    VARY 1 MOLE-B 60.0 63.0
